%BLOCK LATTICE_CART
2.7 0.0 0.0
0.0 2.7 0.0
0.0 0.0 2.7
%ENDBLOCK LATTICE_CART
 
%BLOCK POSITIONS_FRAC
Si 0.0 0.0 0.0 # Si1 % NUM=4
%ENDBLOCK POSITIONS_FRAC
 
#MINSEP=1.3
